0 57 
1 60 
2 60 
3 61 
4 60 
5 58 
6 55 
7 55 
8 54 
9 51 
10 49 
11 47 
12 46 
13 44 
14 42 
15 41 
16 40 
17 39 
18 38 
19 37 
20 36 
21 36 
22 35 
23 35 
24 35 
25 33 
26 32 
27 30 
28 33 
29 30 
30 31 
31 30 
32 28 
33 29 
34 29 
35 28 
36 25 
37 24 
38 21 
39 19 
40 18 
41 17 
42 18 
43 17 
44 15 
45 12 
46 13 
47 15 
48 15 
49 14 
50 12 
51 11 
52 11 
53 9 
54 7 
55 6 
56 4 
57 1 
58 0 
59 0 

